&input

    fildyn='antimonene.dyn'
    zasr='simple'
    flfrc='antimonene.fc'

/
