Phonon Dispersion of flat antimonene

 &inputph
  outdir='./outdir'

  tr2_ph=1.0d-12

  ldisp=.true.

  nq1=12 nq2=12 nq3=1

  prefix='antimonene_flat'

  amass(1)=121.760

  fildyn='antimonene.dyn'
/

